(set-info :status sat) ; swine result
(set-logic ALL)
(declare-fun i1 () Int)
(declare-fun it1 () Int)
(declare-fun it2 () Int)
(declare-fun i2 () Int)
(declare-fun it3 () Int)
(declare-fun i3 () Int)
(declare-fun it4 () Int)
(declare-fun i4 () Int)
(declare-fun it5 () Int)
(declare-fun i5 () Int)
(declare-fun it6 () Int)
(declare-fun i6 () Int)
(declare-fun i7 () Int)
(declare-fun it7 () Int)
(declare-fun it171 () Int)
(declare-fun it172 () Int)
(declare-fun it173 () Int)
(declare-fun it174 () Int)
(declare-fun it175 () Int)
(declare-fun it176 () Int)
(declare-fun it177 () Int)
(declare-fun it68 () Int)
(assert (= (+ i1 (- 1)) 0))
(assert (= (+ it1 (- 2)) 0))
(assert (= (+ (* i2 (- 1)) it2 (- 1)) 0))
(assert (= (+ (* i3 (- 1)) it3) 0))
(assert (= (+ (* i4 (- 1)) it4) 0))
(assert (= (+ (* i5 (- 1)) it5) 0))
(assert (= (+ (* i6 (- 1)) it6) 0))
(assert (= (+ it7 (* i7 (- 1))) 0))
(assert (and (= (+ it1 (- 2)) 0)
     (<= (+ (* it6 (- 1)) (- 5)) 0)
     (> it3 0)
     (<= (+ it6 (- 5)) 0)))
(assert (= (+ it171 (- 3)) 0))
(assert (= (+ it172 (* it2 (- 1)) (- 2)) 0))
(assert (= (+ it173 (* it3 (- 1))) 0))
(assert (= (+ (* it3 (- 1)) it174) 0))
(assert (= (+ it175 (* it7 (- 1))) 0))
(assert (= (+ it176 (* it6 (- 1))) 0))
(assert (= (+ (* it7 (- 1)) it177) 0))
(assert (let ((a!1 (* (* (+ 0 it175) (exp 9 (+ it68 (- 1)))) (+ 0 3)))
      (a!2 (* (exp (exp 4 (+ it68 (- 1))) (+ 0 2)) (exp it174 2)))
      (a!3 (* (* (exp it176 3) (exp 9 (+ it68 (- 1)))) (+ 0 (- 3))))
      (a!5 (* (* (exp it176 3) (exp 9 (+ it68 (- 1)))) (+ 0 (- 1))))
      (a!7 (> (+ (+ 0 it175)
                 (* (exp it174 2) (+ 0 (- 1)))
                 (* (exp it176 5) (+ 0 (- 1))))
              (+ 0 0))))
(let ((a!4 (> (+ a!1
                 (* a!2 (+ 0 (- 4)))
                 a!3
                 (* (exp it176 5) (+ 0 (- 1)))
                 (exp it176 3))
              (+ 0 0)))
      (a!6 (+ (* (+ 0 it175) (exp 9 (+ it68 (- 1))))
              (* a!2 (+ 0 (- 1)))
              a!5
              (* (exp it176 5) (+ 0 (- 1)))
              (exp it176 3))))
  (and (>= (+ (* it171 (- 1)) 3) 0)
       a!4
       (>= (+ it171 (- 3)) 0)
       (> a!6 (+ 0 0))
       (> (* it174 2) 0)
       a!7
       (> it174 0)
       (>= (+ it68 (- 1)) 0)))))
(check-sat)
